\ Model firm
\ LP format - for model browsing. Use MPS format to capture full model detail.
Maximize
  22.33765437763494 output - 5 emission + [ - 0.6236547993389048 output ^2
   + 0.8473095986778094 output * emission - 0.4236547993389047 emission ^2
   ] / 2 
Subject To
 R0: - output + emission <= 0
Bounds
End
